北新桥->二号航站楼
weekday
5 56	
6 09 23 35 46 57
7 08 17 28 39 50	
8 01 12 23 34 45 56
9 07 18 29 40 51
10 02 13 24 35 46 57	
11 08 19 30 41 52
12 03 14 25 36 47 58	
13 09 20 31 42 53	
14 04 15 26 37 48 59	
15 10 21 32 43 54	
16 05 16 27 38 49	
17 00 11 22 33 44 55	
18 06 17 28 39 50	
19 01 12 23 34 45 56	
20 07 18 29 40 51	
21 02 13 25 37 49	
22 01 13 26

weekend
5 56	
6 09 23 35 46 57
7 08 17 28 39 50	
8 01 12 23 34 45 56
9 07 18 29 40 51
10 02 13 24 35 46 57	
11 08 19 30 41 52
12 03 14 25 36 47 58	
13 09 20 31 42 53	
14 04 15 26 37 48 59	
15 10 21 32 43 54	
16 05 16 27 38 49	
17 00 11 22 33 44 55	
18 06 17 28 39 50	
19 01 12 23 34 45 56	
20 07 18 29 40 51	
21 02 13 25 37 49	
22 01 13 26


